TOUR_SECTION
1
77
157
131
193
31
196
19
71
93
34
125
170
120
187
73
10
44
151
67
110
200
79
190
111
50
46
45
18
3
103
128
49
166
146
181
83
94
72
80
37
58
78
85
65
7
47
199
140
92
189
90
52
133
24
43
36
174
109
161
162
168
56
95
150
143
136
81
98
70
102
41
64
152
191
101
185
142
198
119
84
155
183
104
13
117
134
62
89
9
163
35
164
4
182
88
172
106
158
51
186
61
66
179
124
167
48
2
118
153
97
201
100
68
105
63
38
135
175
6
16
195
74
114
160
25
121
149
60
5
180
197
129
123
108
159
53
138
194
86
141
20
154
11
15
75
169
17
145
115
165
96
113
148
127
173
91
22
112
40
176
21
42
57
26
12
39
177
28
87
76
30
144
55
156
188
126
14
69
147
33
99
29
184
116
171
139
23
59
54
130
137
32
178
107
82
192
27
132
8
122
-1
EOF